(declare-datatypes () ((Nat (succ (pred Nat)) (zero))))
(declare-datatypes () ((Lst (cons (head Nat) (tail Lst)) (nil))))
(declare-datatypes () ((Tree (node (data Nat) (left Tree) (right Tree)) (leaf))))
(declare-datatypes () ((Pair (mkpair (first Nat) (second Nat)))
                       (ZLst (zcons (zhead Pair) (ztail ZLst)) (znil))))
(declare-datatypes () ((Tm (var (varname Nat)) (cst (cstloc Nat)) (app (appfst Expr) (appsnd Expr)))
                       (Expr (mkexpr (exprtm Tm) (exprloc Nat)))))
(declare-fun P (Nat) Bool)
(declare-fun f (Nat) Nat)
(declare-fun less (Nat Nat) Bool)
(declare-fun plus (Nat Nat) Nat)
(declare-fun plusAccum (Nat Nat) Nat)
(declare-fun minus (Nat Nat) Nat)
(declare-fun mult (Nat Nat) Nat)
(declare-fun nmax (Nat Nat) Nat)
(declare-fun nmin (Nat Nat) Nat)
(declare-fun append (Lst Lst) Lst)
(declare-fun len (Lst) Nat)
(declare-fun drop (Nat Lst) Lst)
(declare-fun take (Nat Lst) Lst)
(declare-fun count (Nat Lst) Nat)
(declare-fun last (Lst) Nat)
(declare-fun butlast (Lst) Lst)
(declare-fun mem (Nat Lst) Bool)
(declare-fun delete (Nat Lst) Lst)
(declare-fun rev (Lst) Lst)
(declare-fun lmap (Lst) Lst)
(declare-fun filter (Lst) Lst)
(declare-fun dropWhile (Lst) Lst)
(declare-fun takeWhile (Lst) Lst)
(declare-fun ins1 (Nat Lst) Lst)
(declare-fun insort (Nat Lst) Lst)
(declare-fun sorted (Lst) Bool)
(declare-fun sort (Lst) Lst)
(declare-fun zip (Lst Lst) ZLst)
(declare-fun zappend (ZLst ZLst) ZLst)
(declare-fun zdrop (Nat ZLst) ZLst)
(declare-fun ztake (Nat ZLst) ZLst)
(declare-fun zrev (ZLst) ZLst)
(declare-fun mirror (Tree) Tree)
(declare-fun height (Tree) Nat)
(declare-fun mapE (Expr) Expr)
(declare-fun mapT (Tm) Tm)
(define-fun leq ((x Nat) (y Nat)) Bool (or (= x y) (less x y)))
(assert (forall ((t Tm) (n Nat)) (= (mapE (mkexpr t n)) (mkexpr (mapT t) n))))
(assert (forall ((n Nat)) (= (mapT (var n)) (var (f n)))))
(assert (forall ((n Nat)) (= (mapT (cst n)) (cst n))))
(assert (forall ((e1 Expr) (e2 Expr)) (= (mapT (app e1 e2)) (app (mapE e1) (mapE e2)))))
(assert (forall ((n Nat)) (= (f n) n)))
(assert (not
(forall ((e Expr)) (= (mapE e) e)) ; mapE id
))
(check-sat)
